
A = 1;
T = 14;
X = 7;
Y = 7;
Z = 3;
building = array2d(0..6, 0..6,
                   [0, 0, 0, 0, 0, 0, 0, 0, 0, 0, 0, 0, 1, 0, 0, 2, 1, 1, 0, 1, 0, 0, 0, 2, 2, 0, 2, 0,
                    0, 2, 2, 2, 2, 2, 0, 0, 2, 2, 2, 2, 2, 0, 0, 0, 0, 0, 0, 0, 0]);
